\* PC3 *\
Minimize
OBJ: 14 AIO_IO3200 + 8 AIO_IO3210 + 8 AIO_IO3220 + 4 AIO_IO3300 + 8 AIO_IO3310
 + 4 AIO_IO3500 + 10 AIO_IO3510 + 8 AIO_IO3520 + 8 AIO_IO3530 + 10 AIO_IO3540
 + 10 AIO_IO3545 + 3 AIO_IO3546 + 12 AIO_IO3550 + 16 PCA_IO3000
 + 16 PCA_IO3010 + 8 PCA_IO3020 + 8 PCA_IO3030 + 8 PCA_IO3100 + 12 PCA_IO3130
 + 16 PCA_IO3400 + 16 PCA_IO3410 + 8 PCA_IO3500 + 34 PCA_IO3510
 + 42 PCA_IO3540 + 42 PCA_IO3545 + 36 PCA_IO3546 + 16 PCA_IO3550
Subject To
_C1: 8 PCA_IO3400 + 4 PCA_IO3500 + 24 PCA_IO3510 + 24 PCA_IO3540
 + 24 PCA_IO3545 + 18 PCA_IO3546 >= 12
_C10: 14 AIO_IO3200 + 8 AIO_IO3210 + 8 AIO_IO3220 + 4 AIO_IO3500
 + 8 AIO_IO3510 + 4 AIO_IO3520 + 6 AIO_IO3530 + 8 AIO_IO3540 + 8 AIO_IO3545
 + 3 AIO_IO3546 + 7 AIO_IO3550 >= 0
_dummy: __dummy = 0
_C11: __dummy >= 0
_C12: 4 AIO_IO3300 + 8 AIO_IO3310 + 2 AIO_IO3510 + 4 AIO_IO3520 + 2 AIO_IO3530
 + 2 AIO_IO3540 + 2 AIO_IO3545 + 5 AIO_IO3550 >= 0
_C2: 16 PCA_IO3000 + 8 PCA_IO3030 >= 0
_C3: 8 PCA_IO3100 + 8 PCA_IO3400 + 4 PCA_IO3500 + 10 PCA_IO3510
 + 18 PCA_IO3540 + 18 PCA_IO3545 + 18 PCA_IO3546 >= 0
_C4: 10 PCA_IO3550 >= 0
_C5: __dummy >= 0
_C6: 6 PCA_IO3550 >= 0
_C7: 16 PCA_IO3010 + 8 PCA_IO3410 >= 0
_C8: 8 PCA_IO3020 >= 0
_C9: 12 PCA_IO3130 + 8 PCA_IO3410 >= 0
Bounds
0 <= AIO_IO3200
0 <= AIO_IO3210
0 <= AIO_IO3220
0 <= AIO_IO3300
0 <= AIO_IO3310
0 <= AIO_IO3500
0 <= AIO_IO3510
0 <= AIO_IO3520
0 <= AIO_IO3530
0 <= AIO_IO3540
0 <= AIO_IO3545
0 <= AIO_IO3546
0 <= AIO_IO3550
0 <= PCA_IO3000
0 <= PCA_IO3010
0 <= PCA_IO3020
0 <= PCA_IO3030
0 <= PCA_IO3100
0 <= PCA_IO3130
0 <= PCA_IO3400
0 <= PCA_IO3410
0 <= PCA_IO3500
0 <= PCA_IO3510
0 <= PCA_IO3540
0 <= PCA_IO3545
0 <= PCA_IO3546
0 <= PCA_IO3550
__dummy = 0
Generals
AIO_IO3200
AIO_IO3210
AIO_IO3220
AIO_IO3300
AIO_IO3310
AIO_IO3500
AIO_IO3510
AIO_IO3520
AIO_IO3530
AIO_IO3540
AIO_IO3545
AIO_IO3546
AIO_IO3550
PCA_IO3000
PCA_IO3010
PCA_IO3020
PCA_IO3030
PCA_IO3100
PCA_IO3130
PCA_IO3400
PCA_IO3410
PCA_IO3500
PCA_IO3510
PCA_IO3540
PCA_IO3545
PCA_IO3546
PCA_IO3550
End
